c Generated map
c Size: 10 * 10, weights in range: 1 to 10, walls: False, with ratio 0.0
c dim 4 of 7
c
p sp 100 180
c graph contains 100 nodes and 180 arcs
c
a 1 11 5
a 11 1 5
a 1 2 4
a 2 1 4
a 2 12 8
a 12 2 8
a 2 3 4
a 3 2 4
a 3 13 2
a 13 3 2
a 3 4 8
a 4 3 8
a 4 14 8
a 14 4 8
a 4 5 2
a 5 4 2
a 5 15 6
a 15 5 6
a 5 6 7
a 6 5 7
a 6 16 6
a 16 6 6
a 6 7 2
a 7 6 2
a 7 17 2
a 17 7 2
a 7 8 3
a 8 7 3
a 8 18 4
a 18 8 4
a 8 9 4
a 9 8 4
a 9 19 6
a 19 9 6
a 9 10 1
a 10 9 1
a 10 20 1
a 20 10 1
a 11 21 7
a 21 11 7
a 11 12 5
a 12 11 5
a 12 22 7
a 22 12 7
a 12 13 6
a 13 12 6
a 13 23 5
a 23 13 5
a 13 14 10
a 14 13 10
a 14 24 3
a 24 14 3
a 14 15 6
a 15 14 6
a 15 25 7
a 25 15 7
a 15 16 7
a 16 15 7
a 16 26 3
a 26 16 3
a 16 17 4
a 17 16 4
a 17 27 4
a 27 17 4
a 17 18 8
a 18 17 8
a 18 28 9
a 28 18 9
a 18 19 5
a 19 18 5
a 19 29 4
a 29 19 4
a 19 20 9
a 20 19 9
a 20 30 6
a 30 20 6
a 21 31 6
a 31 21 6
a 21 22 8
a 22 21 8
a 22 32 5
a 32 22 5
a 22 23 4
a 23 22 4
a 23 33 6
a 33 23 6
a 23 24 10
a 24 23 10
a 24 34 8
a 34 24 8
a 24 25 8
a 25 24 8
a 25 35 4
a 35 25 4
a 25 26 4
a 26 25 4
a 26 36 1
a 36 26 1
a 26 27 5
a 27 26 5
a 27 37 4
a 37 27 4
a 27 28 2
a 28 27 2
a 28 38 7
a 38 28 7
a 28 29 10
a 29 28 10
a 29 39 8
a 39 29 8
a 29 30 8
a 30 29 8
a 30 40 8
a 40 30 8
a 31 41 9
a 41 31 9
a 31 32 8
a 32 31 8
a 32 42 2
a 42 32 2
a 32 33 2
a 33 32 2
a 33 43 9
a 43 33 9
a 33 34 6
a 34 33 6
a 34 44 5
a 44 34 5
a 34 35 10
a 35 34 10
a 35 45 7
a 45 35 7
a 35 36 3
a 36 35 3
a 36 46 3
a 46 36 3
a 36 37 9
a 37 36 9
a 37 47 8
a 47 37 8
a 37 38 1
a 38 37 1
a 38 48 7
a 48 38 7
a 38 39 5
a 39 38 5
a 39 49 8
a 49 39 8
a 39 40 10
a 40 39 10
a 40 50 4
a 50 40 4
a 41 51 1
a 51 41 1
a 41 42 1
a 42 41 1
a 42 52 9
a 52 42 9
a 42 43 6
a 43 42 6
a 43 53 3
a 53 43 3
a 43 44 7
a 44 43 7
a 44 54 6
a 54 44 6
a 44 45 10
a 45 44 10
a 45 55 5
a 55 45 5
a 45 46 4
a 46 45 4
a 46 56 8
a 56 46 8
a 46 47 2
a 47 46 2
a 47 57 5
a 57 47 5
a 47 48 10
a 48 47 10
a 48 58 1
a 58 48 1
a 48 49 2
a 49 48 2
a 49 59 10
a 59 49 10
a 49 50 2
a 50 49 2
a 50 60 10
a 60 50 10
a 51 61 4
a 61 51 4
a 51 52 1
a 52 51 1
a 52 62 9
a 62 52 9
a 52 53 9
a 53 52 9
a 53 63 6
a 63 53 6
a 53 54 7
a 54 53 7
a 54 64 6
a 64 54 6
a 54 55 8
a 55 54 8
a 55 65 1
a 65 55 1
a 55 56 5
a 56 55 5
a 56 66 9
a 66 56 9
a 56 57 5
a 57 56 5
a 57 67 6
a 67 57 6
a 57 58 8
a 58 57 8
a 58 68 1
a 68 58 1
a 58 59 3
a 59 58 3
a 59 69 4
a 69 59 4
a 59 60 7
a 60 59 7
a 60 70 10
a 70 60 10
a 61 71 10
a 71 61 10
a 61 62 3
a 62 61 3
a 62 72 5
a 72 62 5
a 62 63 2
a 63 62 2
a 63 73 7
a 73 63 7
a 63 64 9
a 64 63 9
a 64 74 6
a 74 64 6
a 64 65 10
a 65 64 10
a 65 75 2
a 75 65 2
a 65 66 4
a 66 65 4
a 66 76 8
a 76 66 8
a 66 67 4
a 67 66 4
a 67 77 5
a 77 67 5
a 67 68 6
a 68 67 6
a 68 78 6
a 78 68 6
a 68 69 7
a 69 68 7
a 69 79 10
a 79 69 10
a 69 70 7
a 70 69 7
a 70 80 6
a 80 70 6
a 71 81 1
a 81 71 1
a 71 72 6
a 72 71 6
a 72 82 5
a 82 72 5
a 72 73 9
a 73 72 9
a 73 83 1
a 83 73 1
a 73 74 1
a 74 73 1
a 74 84 2
a 84 74 2
a 74 75 2
a 75 74 2
a 75 85 1
a 85 75 1
a 75 76 2
a 76 75 2
a 76 86 10
a 86 76 10
a 76 77 7
a 77 76 7
a 77 87 9
a 87 77 9
a 77 78 1
a 78 77 1
a 78 88 6
a 88 78 6
a 78 79 2
a 79 78 2
a 79 89 8
a 89 79 8
a 79 80 2
a 80 79 2
a 80 90 10
a 90 80 10
a 81 91 6
a 91 81 6
a 81 82 3
a 82 81 3
a 82 92 3
a 92 82 3
a 82 83 8
a 83 82 8
a 83 93 9
a 93 83 9
a 83 84 1
a 84 83 1
a 84 94 3
a 94 84 3
a 84 85 9
a 85 84 9
a 85 95 4
a 95 85 4
a 85 86 7
a 86 85 7
a 86 96 2
a 96 86 2
a 86 87 1
a 87 86 1
a 87 97 5
a 97 87 5
a 87 88 10
a 88 87 10
a 88 98 10
a 98 88 10
a 88 89 7
a 89 88 7
a 89 99 1
a 99 89 1
a 89 90 1
a 90 89 1
a 90 100 6
a 100 90 6
a 91 92 3
a 92 91 3
a 92 93 4
a 93 92 4
a 93 94 9
a 94 93 9
a 94 95 1
a 95 94 1
a 95 96 7
a 96 95 7
a 96 97 1
a 97 96 1
a 97 98 10
a 98 97 10
a 98 99 5
a 99 98 5
a 99 100 6
a 100 99 6
